20 100
1000
457 271
797 590
483 330
784 413
988 737
337 119
362 431
979 589
806 385
103 831
329 886
874 663
175 159
599 927
885 699
17 387
167 817
14 887
790 79
874 553
815 49
988 443
481 673
754 123
813 646
465 905
852 422
87 945
717 262
173 792
134 874
397 235
112 686
82 848
692 830
524 359
762 223
225 102
300 41
597 843
532 107
498 984
947 438
14 109
873 961
217 533
64 238
613 893
456 357
248 686
422 401
293 790
641 843
593 898
671 820
64 952
139 78
41 607
273 431
180 129
712 301
493 685
272 407
314 981
812 588
808 723
204 110
344 521
801 943
254 952
315 363
244 690
106 619
474 862
858 797
510 351
365 87
643 45
334 265
78 363
100 139
259 612
52 239
596 473
749 587
326 576
201 347
396 390
563 554
423 45
108 214
610 558
927 864
562 46
479 238
299 593
28 253
463 580
566 695
691 223
150 66
936 552
855 624
766 886
609 516
587 863
540 598
257 801
648 770
137 10
600 861
299 133
232 317
83 877
839 53
973 233
168 815
939 766
517 268
522 661
